* ENCODING=ISO-8859-1
NAME          CPLEX
ROWS
 N  obj1    
 G  c1      
 G  c2      
 G  c3      
 G  c4      
 G  c5      
 G  c6      
 G  c7      
 G  c8      
 G  c9      
 G  c10     
 G  c11     
 G  c12     
 G  c13     
 G  c14     
 G  c15     
 G  c16     
 G  c17     
 G  c18     
 G  c19     
 G  c20     
 G  c21     
 G  c22     
 G  c23     
 G  c24     
 G  c25     
 G  c26     
 G  c27     
 G  c28     
 G  c29     
 G  c30     
 G  c31     
 G  c32     
 G  c33     
 G  c34     
 G  c35     
COLUMNS
    MARK0000  'MARKER'                 'INTORG'
    x1        obj1                            1
    x1        c2                            350
    x1        c10                           195
    x1        c16                           456
    x1        c29                           377
    x2        obj1                            1
    x2        c17                           135
    x2        c25                           595
    x2        c34                           541
    x3        obj1                            1
    x3        c9                            839
    x3        c22                           934
    x4        obj1                            1
    x4        c10                           128
    x4        c25                           999
    x5        obj1                            1
    x5        c11                           559
    x5        c16                           653
    x6        obj1                            1
    x6        c27                           880
    x6        c30                           540
    x7        obj1                            1
    x7        c1                            997
    x7        c11                           345
    x7        c34                           311
    x8        obj1                            1
    x8        c12                           633
    x9        obj1                            1
    x9        c10                           880
    x9        c17                           595
    x9        c27                           430
    x10       obj1                            1
    x10       c10                           661
    x10       c28                           606
    x10       c29                           444
    x10       c31                           511
    x10       c32                           664
    x10       c33                           751
    x11       obj1                            1
    x11       c4                            706
    x11       c15                           950
    x11       c20                           115
    x11       c23                           709
    x11       c33                           767
    x12       obj1                            1
    x12       c4                            223
    x12       c9                            562
    x12       c12                           594
    x12       c24                           482
    x13       obj1                            1
    x13       c23                           792
    x14       obj1                            1
    x14       c1                            921
    x14       c5                            768
    x15       obj1                            1
    x15       c15                           423
    x15       c21                           516
    x15       c29                           491
    x16       obj1                            1
    x16       c29                           953
    x16       c32                           539
    x17       obj1                            1
    x17       c14                           526
    x17       c19                           336
    x17       c23                           632
    x17       c35                           645
    x18       obj1                            1
    x18       c1                            792
    x18       c8                            899
    x18       c9                            309
    x18       c19                           706
    x18       c32                           937
    x19       obj1                            1
    x19       c12                           544
    x20       obj1                            1
    x20       c25                           666
    x21       obj1                            1
    x21       c3                            474
    x21       c8                            484
    x21       c13                           371
    x21       c17                           651
    x22       obj1                            1
    x22       c7                            672
    x23       obj1                            1
    x24       obj1                            1
    x24       c5                            556
    x24       c7                            388
    x24       c12                           250
    x25       obj1                            1
    x25       c4                            506
    x25       c7                            294
    x25       c14                           919
    x25       c15                           455
    x25       c17                           460
    x25       c18                           841
    x25       c20                           782
    x25       c35                           657
    x26       obj1                            1
    x26       c6                            962
    x26       c11                           701
    x26       c14                           542
    x26       c35                           729
    x27       obj1                            1
    x27       c14                           913
    x27       c15                           215
    x28       obj1                            1
    x28       c7                            295
    x28       c26                           108
    x28       c31                           982
    x29       obj1                            1
    x29       c13                           423
    x29       c21                           355
    x29       c25                           271
    x30       obj1                            1
    x30       c5                            371
    x30       c13                           103
    x30       c18                           412
    x30       c19                           155
    x30       c23                           532
    x30       c26                           504
    x31       obj1                            1
    x31       c6                            871
    x31       c23                           773
    x31       c24                           399
    x31       c29                           791
    x31       c35                           456
    x32       obj1                            1
    x32       c27                           287
    x32       c30                           870
    x33       obj1                            1
    x33       c4                            570
    x33       c8                            812
    x33       c11                           109
    x34       obj1                            1
    x34       c3                            738
    x35       obj1                            1
    x35       c7                            142
    x35       c28                           625
    x36       obj1                            1
    x36       c2                            225
    x36       c8                            124
    x36       c16                           946
    x36       c18                           863
    x36       c21                           118
    x36       c23                           864
    x36       c24                           536
    x36       c30                           267
    x36       c31                           704
    x36       c35                           471
    x37       obj1                            1
    x37       c33                           306
    x38       obj1                            1
    x38       c3                            761
    x38       c21                           722
    x38       c23                           195
    x38       c28                           152
    x38       c31                           127
    x38       c33                           199
    x38       c35                           619
    x39       obj1                            1
    x39       c6                            129
    x39       c13                           148
    x39       c15                           819
    x39       c30                           183
    x39       c35                           159
    x40       obj1                            1
    x40       c11                           607
    x40       c20                           921
    x40       c24                           952
    x40       c30                           801
    x41       obj1                            1
    x41       c9                            179
    x41       c15                           287
    x41       c19                           641
    x42       obj1                            1
    x42       c7                            350
    x42       c19                           497
    x42       c26                           562
    x43       obj1                            1
    x43       c7                            266
    x43       c27                           105
    x43       c30                           114
    x44       obj1                            1
    x44       c7                            927
    x44       c12                           433
    x45       obj1                            1
    x45       c5                            682
    x45       c10                           710
    x45       c11                           715
    x45       c14                           571
    x45       c20                           273
    x45       c22                           724
    x45       c25                           269
    x45       c28                           612
    x45       c34                           688
    x46       obj1                            1
    x46       c2                            533
    x46       c6                            109
    x46       c22                           864
    x46       c26                           487
    x47       obj1                            1
    x47       c3                            276
    x47       c8                            629
    x47       c17                           382
    x47       c29                           987
    x48       obj1                            1
    x48       c18                           842
    x48       c20                           166
    x49       obj1                            1
    x49       c14                           539
    x49       c16                           634
    x50       obj1                            1
    x50       c2                            445
    x50       c23                           264
    x50       c32                           355
    x51       obj1                            1
    x51       c4                            389
    x52       obj1                            1
    x52       c12                           972
    x52       c16                           654
    x52       c30                           433
    x52       c32                           635
    x53       obj1                            1
    x53       c7                            186
    x53       c8                            725
    x53       c24                           329
    x53       c34                           861
    x53       c35                           911
    x54       obj1                            1
    x54       c8                            551
    x55       obj1                            1
    x55       c8                            539
    x55       c20                           522
    x55       c21                           259
    x55       c25                           402
    x55       c27                           756
    x55       c32                           366
    x56       obj1                            1
    x56       c6                            195
    x56       c9                            773
    x56       c12                           230
    x56       c19                           783
    x57       obj1                            1
    x57       c1                            784
    x57       c15                           303
    x58       obj1                            1
    x58       c3                            383
    x58       c5                            351
    x58       c20                           694
    x58       c21                           744
    x58       c25                           898
    x58       c26                           935
    x58       c27                           510
    x58       c31                           100
    x59       obj1                            1
    x59       c17                           136
    x59       c25                           261
    x59       c27                           915
    x59       c34                           777
    x60       obj1                            1
    x60       c1                            477
    x60       c3                            803
    x60       c9                            580
    x60       c27                           748
    x60       c31                           949
    x61       obj1                            1
    x61       c10                           593
    x61       c14                           289
    x61       c30                           656
    x62       obj1                            1
    x62       c18                           255
    x62       c32                           193
    x63       obj1                            1
    x63       c1                            121
    x63       c10                           959
    x63       c35                           741
    x64       obj1                            1
    x64       c4                            491
    x64       c20                           335
    x64       c22                           316
    x64       c25                           280
    x64       c31                           314
    x65       obj1                            1
    x65       c4                            362
    x65       c10                           408
    x65       c17                           828
    x66       obj1                            1
    x66       c5                            184
    x66       c6                            745
    x66       c30                           606
    x67       obj1                            1
    x68       obj1                            1
    x68       c8                            261
    x68       c11                           910
    x68       c15                           364
    x68       c20                           409
    x68       c21                           301
    x68       c25                           838
    x69       obj1                            1
    x69       c15                           895
    x69       c16                           238
    x69       c23                           111
    x69       c24                           584
    x69       c30                           677
    x70       obj1                            1
    x70       c6                            108
    x70       c11                           316
    x70       c15                           797
    x70       c17                           253
    x70       c20                           607
    x70       c29                           508
    x70       c34                           471
    MARK0001  'MARKER'                 'INTEND'
RHS
    rhs       c1                           2046
    rhs       c2                            777
    rhs       c3                           1718
    rhs       c4                           1624
    rhs       c5                           1456
    rhs       c6                           1560
    rhs       c7                           1760
    rhs       c8                           2512
    rhs       c9                           1621
    rhs       c10                          2267
    rhs       c11                          2131
    rhs       c12                          1828
    rhs       c13                           523
    rhs       c14                          2150
    rhs       c15                          2754
    rhs       c16                          1791
    rhs       c17                          1720
    rhs       c18                          1607
    rhs       c19                          1559
    rhs       c20                          2412
    rhs       c21                          1508
    rhs       c22                          1419
    rhs       c23                          2436
    rhs       c24                          1641
    rhs       c25                          2740
    rhs       c26                          1298
    rhs       c27                          2316
    rhs       c28                           998
    rhs       c29                          2276
    rhs       c30                          2574
    rhs       c31                          1844
    rhs       c32                          1845
    rhs       c33                          1012
    rhs       c34                          1825
    rhs       c35                          2694
BOUNDS
 LI bnd       x1        0
 LI bnd       x2        0
 LI bnd       x3        0
 LI bnd       x4        0
 LI bnd       x5        0
 LI bnd       x6        0
 LI bnd       x7        0
 LI bnd       x8        0
 LI bnd       x9        0
 LI bnd       x10       0
 LI bnd       x11       0
 LI bnd       x12       0
 LI bnd       x13       0
 LI bnd       x14       0
 LI bnd       x15       0
 LI bnd       x16       0
 LI bnd       x17       0
 LI bnd       x18       0
 LI bnd       x19       0
 LI bnd       x20       0
 LI bnd       x21       0
 LI bnd       x22       0
 LI bnd       x23       0
 LI bnd       x24       0
 LI bnd       x25       0
 LI bnd       x26       0
 LI bnd       x27       0
 LI bnd       x28       0
 LI bnd       x29       0
 LI bnd       x30       0
 LI bnd       x31       0
 LI bnd       x32       0
 LI bnd       x33       0
 LI bnd       x34       0
 LI bnd       x35       0
 LI bnd       x36       0
 LI bnd       x37       0
 LI bnd       x38       0
 LI bnd       x39       0
 LI bnd       x40       0
 LI bnd       x41       0
 LI bnd       x42       0
 LI bnd       x43       0
 LI bnd       x44       0
 LI bnd       x45       0
 LI bnd       x46       0
 LI bnd       x47       0
 LI bnd       x48       0
 LI bnd       x49       0
 LI bnd       x50       0
 LI bnd       x51       0
 LI bnd       x52       0
 LI bnd       x53       0
 LI bnd       x54       0
 LI bnd       x55       0
 LI bnd       x56       0
 LI bnd       x57       0
 LI bnd       x58       0
 LI bnd       x59       0
 LI bnd       x60       0
 LI bnd       x61       0
 LI bnd       x62       0
 LI bnd       x63       0
 LI bnd       x64       0
 LI bnd       x65       0
 LI bnd       x66       0
 LI bnd       x67       0
 LI bnd       x68       0
 LI bnd       x69       0
 LI bnd       x70       0
ENDATA
